<number of tasks>
20

<cycle time>
1000

<order strength>
0,3


<task times>
1 497
2 664
3 530
4 643
5 439
6 390
7 532
8 618
9 380
10 627
11 575
12 504
13 693
14 364
15 464
16 539
17 442
18 579
19 264
20 570

<precedence relations>
1,8
2,7
3,4
3,5
3,6
4,8
5,8
6,8
7,9
7,10
7,11
8,12
8,13
8,14
8,15
9,17
11,16
17,18
17,19
17,20

<end>
